NAME          retail
ROWS
 N  obj     
 E  s2c1    
 E  s2c2    
 E  s2c3    
 E  s2c4    
 E  s2c5    
 E  s2c6    
 E  s2c7    
 E  s2c8    
 E  s2c9    
 E  s2c10   
 E  s2c11   
 E  s2c12   
 E  s2c13   
 E  s2c14   
 E  s2c15   
 E  s2c16   
 E  s2c17   
 E  s2c18   
 E  s2c19   
 E  s2c20   
 E  s2c21   
 E  s2c22   
COLUMNS
    s1        s2c1                           -1
    s1        s2c8                           -1
    s2        s2c2                           -1
    s2        s2c9                           -1
    s3        s2c3                           -1
    s3        s2c10                          -1
    s4        s2c4                           -1
    s4        s2c11                          -1
    s5        s2c5                           -1
    s5        s2c12                          -1
    s6        s2c6                           -1
    s6        s2c13                          -1
    s7        s2c7                           -1
    s7        s2c14                          -1
    a1        obj                             1
    a1        s2c1                            1
    a1        s2c8                            1
    a2        obj                             1
    a2        s2c2                            1
    a2        s2c9                            1
    a3        obj                             1
    a3        s2c3                            1
    a3        s2c10                           1
    a4        obj                             1
    a4        s2c4                            1
    a4        s2c11                           1
    a5        obj                             1
    a5        s2c5                            1
    a5        s2c12                           1
    a6        obj                             1
    a6        s2c6                            1
    a6        s2c13                           1
    a7        obj                             1
    a7        s2c7                            1
    a7        s2c14                           1
    t12       obj                           0.1
    t12       s2c1                            1
    t12       s2c16                           1
    t12       s2c22                          -1
    t13       obj                           0.1
    t13       s2c1                            1
    t13       s2c17                           1
    t13       s2c22                          -1
    t14       obj                           0.1
    t14       s2c1                            1
    t14       s2c18                           1
    t14       s2c22                          -1
    t15       obj                           0.1
    t15       s2c1                            1
    t15       s2c19                           1
    t15       s2c22                          -1
    t16       obj                           0.1
    t16       s2c1                            1
    t16       s2c20                           1
    t16       s2c22                          -1
    t17       obj                           0.1
    t17       s2c1                            1
    t17       s2c21                           1
    t17       s2c22                          -1
    t21       obj                           0.1
    t21       s2c2                            1
    t21       s2c15                           1
    t21       s2c22                          -1
    t23       obj                           0.1
    t23       s2c2                            1
    t23       s2c17                           1
    t23       s2c22                          -1
    t24       obj                           0.1
    t24       s2c2                            1
    t24       s2c18                           1
    t24       s2c22                          -1
    t25       obj                           0.1
    t25       s2c2                            1
    t25       s2c19                           1
    t25       s2c22                          -1
    t26       obj                           0.1
    t26       s2c2                            1
    t26       s2c20                           1
    t26       s2c22                          -1
    t27       obj                           0.1
    t27       s2c2                            1
    t27       s2c21                           1
    t27       s2c22                          -1
    t31       obj                           0.1
    t31       s2c3                            1
    t31       s2c15                           1
    t31       s2c22                          -1
    t32       obj                           0.1
    t32       s2c3                            1
    t32       s2c16                           1
    t32       s2c22                          -1
    t34       obj                           0.1
    t34       s2c3                            1
    t34       s2c18                           1
    t34       s2c22                          -1
    t35       obj                           0.1
    t35       s2c3                            1
    t35       s2c19                           1
    t35       s2c22                          -1
    t36       obj                           0.1
    t36       s2c3                            1
    t36       s2c20                           1
    t36       s2c22                          -1
    t37       obj                           0.1
    t37       s2c3                            1
    t37       s2c21                           1
    t37       s2c22                          -1
    t41       obj                           0.1
    t41       s2c4                            1
    t41       s2c15                           1
    t41       s2c22                          -1
    t42       obj                           0.1
    t42       s2c4                            1
    t42       s2c16                           1
    t42       s2c22                          -1
    t43       obj                           0.1
    t43       s2c4                            1
    t43       s2c17                           1
    t43       s2c22                          -1
    t45       obj                           0.1
    t45       s2c4                            1
    t45       s2c19                           1
    t45       s2c22                          -1
    t46       obj                           0.1
    t46       s2c4                            1
    t46       s2c20                           1
    t46       s2c22                          -1
    t47       obj                           0.1
    t47       s2c4                            1
    t47       s2c21                           1
    t47       s2c22                          -1
    t51       obj                           0.1
    t51       s2c5                            1
    t51       s2c15                           1
    t51       s2c22                          -1
    t52       obj                           0.1
    t52       s2c5                            1
    t52       s2c16                           1
    t52       s2c22                          -1
    t53       obj                           0.1
    t53       s2c5                            1
    t53       s2c17                           1
    t53       s2c22                          -1
    t54       obj                           0.1
    t54       s2c5                            1
    t54       s2c18                           1
    t54       s2c22                          -1
    t56       obj                           0.1
    t56       s2c5                            1
    t56       s2c20                           1
    t56       s2c22                          -1
    t57       obj                           0.1
    t57       s2c5                            1
    t57       s2c21                           1
    t57       s2c22                          -1
    t61       obj                           0.1
    t61       s2c6                            1
    t61       s2c15                           1
    t61       s2c22                          -1
    t62       obj                           0.1
    t62       s2c6                            1
    t62       s2c16                           1
    t62       s2c22                          -1
    t63       obj                           0.1
    t63       s2c6                            1
    t63       s2c17                           1
    t63       s2c22                          -1
    t64       obj                           0.1
    t64       s2c6                            1
    t64       s2c18                           1
    t64       s2c22                          -1
    t65       obj                           0.1
    t65       s2c6                            1
    t65       s2c19                           1
    t65       s2c22                          -1
    t67       obj                           0.1
    t67       s2c6                            1
    t67       s2c21                           1
    t67       s2c22                          -1
    t71       obj                           0.1
    t71       s2c7                            1
    t71       s2c15                           1
    t71       s2c22                          -1
    t72       obj                           0.1
    t72       s2c7                            1
    t72       s2c16                           1
    t72       s2c22                          -1
    t73       obj                           0.1
    t73       s2c7                            1
    t73       s2c17                           1
    t73       s2c22                          -1
    t74       obj                           0.1
    t74       s2c7                            1
    t74       s2c18                           1
    t74       s2c22                          -1
    t75       obj                           0.1
    t75       s2c7                            1
    t75       s2c19                           1
    t75       s2c22                          -1
    t76       obj                           0.1
    t76       s2c7                            1
    t76       s2c20                           1
    t76       s2c22                          -1
    r1        obj                             4
    r1        s2c15                           1
    r2        obj                             4
    r2        s2c16                           1
    r3        obj                             4
    r3        s2c17                           1
    r4        obj                             4
    r4        s2c18                           1
    r5        obj                             4
    r5        s2c19                           1
    r6        obj                             4
    r6        s2c20                           1
    r7        obj                             4
    r7        s2c21                           1
    f1        s2c1                            1
    f1        s2c15                           1
    f1        s2c22                          -1
    f2        s2c2                            1
    f2        s2c16                           1
    f2        s2c22                          -1
    f3        s2c3                            1
    f3        s2c17                           1
    f3        s2c22                          -1
    f4        s2c4                            1
    f4        s2c18                           1
    f4        s2c22                          -1
    f5        s2c5                            1
    f5        s2c19                           1
    f5        s2c22                          -1
    f6        s2c6                            1
    f6        s2c20                           1
    f6        s2c22                          -1
    f7        s2c7                            1
    f7        s2c21                           1
    f7        s2c22                          -1
    q1        s2c8                            1
    q1        s2c22                           1
    q2        s2c9                            1
    q2        s2c22                           1
    q3        s2c10                           1
    q3        s2c22                           1
    q4        s2c11                           1
    q4        s2c22                           1
    q5        s2c12                           1
    q5        s2c22                           1
    q6        s2c13                           1
    q6        s2c22                           1
    q7        s2c14                           1
    q7        s2c22                           1
RHS
    rhs       s2c15                         100
    rhs       s2c16                         200
    rhs       s2c17                         150
    rhs       s2c18                         170
    rhs       s2c19                         180
    rhs       s2c20                         170
    rhs       s2c21                         170
BOUNDS
 LO BND       s1           0.0
 LO BND       s2           0.0
 LO BND       s3           0.0 
 LO BND       s4           0.0
 LO BND       s5           0.0
 LO BND       s6           0.0 
 LO BND       s7           0.0
ENDATA
